90 15277783
43 70 32 27 8 62 30 56 77 60 3 64 19 46 39 79 37 54 68 40 2 80 48 28 89 57 29 51 25 10 4 78 42 85 13 7 44 9 45 81 76 34 65 26 53 72 88 59 20 83 5 90 18 55 41 69 84 75 11 24 35 73 14 87 21 12 67 82 71 23 15 16 52 17 47 86 61 74 66 1 6 22 38 49 31 63 36 58 33 50 
